(set-info :source |printed by MathSAT|)
(declare-fun |main::local_14@2| () (_ BitVec 32))
(declare-fun |id::x__param__@2| () (_ BitVec 32))
(declare-fun |id::x@2| () (_ BitVec 32))
(declare-fun |id2::x__param__@2| () (_ BitVec 32))
(declare-fun |id2::x@2| () (_ BitVec 32))
(declare-fun |id::x__param__@3| () (_ BitVec 32))
(declare-fun |id2::__retval__@2| () (_ BitVec 32))
(declare-fun |id::uVar1@4| () (_ BitVec 32))
(declare-fun |id::__retval__@2| () (_ BitVec 32))
(declare-fun |id2::uVar1@4| () (_ BitVec 32))
(declare-fun |id2::uVar1@5| () (_ BitVec 32))
(declare-fun |id::x@3| () (_ BitVec 32))
(declare-fun |id::uVar1@7| () (_ BitVec 32))
(declare-fun |id::uVar1@8| () (_ BitVec 32))
(declare-fun |id::__retval__@4| () (_ BitVec 32))
(declare-fun |main::uVar1@6| () (_ BitVec 32))
(assert (let ((.def_14 (= |id::x__param__@2| |id::x@2|)))(let ((.def_12 (= |main::local_14@2| |id::x__param__@2|)))(let ((.def_161 (and .def_12 .def_14)))(let ((.def_15 (= |id::x@2| (_ bv0 32))))(let ((.def_19 (not .def_15)))(let ((.def_162 (and .def_19 .def_161)))(let ((.def_24 (bvadd (_ bv4294967295 32) |id::x@2|)))(let ((.def_26 (= .def_24 |id2::x__param__@2|)))(let ((.def_163 (and .def_26 .def_162)))(let ((.def_28 (= |id2::x__param__@2| |id2::x@2|)))(let ((.def_164 (and .def_28 .def_163)))(let ((.def_29 (= |id2::x@2| (_ bv0 32))))(let ((.def_32 (not .def_29)))(let ((.def_165 (and .def_32 .def_164)))(let ((.def_36 (bvadd (_ bv4294967295 32) |id2::x@2|)))(let ((.def_38 (= .def_36 |id::x__param__@3|)))(let ((.def_166 (and .def_38 .def_165)))(let ((.def_134 (= |id::x__param__@3| |id::x@3|)))(let ((.def_167 (and .def_134 .def_166)))(let ((.def_135 (= |id::x@3| (_ bv0 32))))(let ((.def_168 (and .def_135 .def_167)))(let ((.def_138 (= |id::uVar1@4| (_ bv0 32))))(let ((.def_169 (and .def_138 .def_168)))(let ((.def_140 (= |id::uVar1@4| |id::__retval__@2|)))(let ((.def_170 (and .def_140 .def_169)))(let ((.def_106 (= |id::__retval__@2| |id2::uVar1@4|)))(let ((.def_171 (and .def_106 .def_170)))(let ((.def_109 (bvadd (_ bv1 32) |id2::uVar1@4|)))(let ((.def_111 (= .def_109 |id2::uVar1@5|)))(let ((.def_172 (and .def_111 .def_171)))(let ((.def_115 (bvult (_ bv3 32) |id2::uVar1@5|)))(let ((.def_117 (not .def_115)))(let ((.def_173 (and .def_117 .def_172)))(let ((.def_142 (= |id2::__retval__@2| |id2::uVar1@5|)))(let ((.def_174 (and .def_142 .def_173)))(let ((.def_145 (= |id2::__retval__@2| |id::uVar1@7|)))(let ((.def_175 (and .def_145 .def_174)))(let ((.def_147 (bvadd (_ bv1 32) |id::uVar1@7|)))(let ((.def_149 (= .def_147 |id::uVar1@8|)))(let ((.def_176 (and .def_149 .def_175)))(let ((.def_150 (bvult (_ bv3 32) |id::uVar1@8|)))(let ((.def_152 (not .def_150)))(let ((.def_177 (and .def_152 .def_176)))(let ((.def_155 (= |id::uVar1@8| |id::__retval__@4|)))(let ((.def_178 (and .def_155 .def_177)))(let ((.def_158 (= |id::__retval__@4| |main::uVar1@6|)))(let ((.def_179 (and .def_158 .def_178)))(let ((.def_159 (= |main::uVar1@6| (_ bv2 32))))(let ((.def_180 (and .def_159 .def_179))).def_180))))))))))))))))))))))))))))))))))))))))))))))))))